Problem:    
Rows:       260
Columns:    89 (72 integer, 72 binary)
Non-zeros:  812
Status:     INTEGER OPTIMAL
Objective:  value = 2.774678 (MINimum)

   No.   Row name        Activity     Lower bound   Upper bound
------ ------------    ------------- ------------- -------------
     1 r.5                   1002.77             0               
     2 r.6                  -998.632      -999.114               
     3 r.7                   2.77468             0               
     4 r.8                   1.39045      -998.634               
     5 r.9                   2.77468             0               
     6 r.10                  1.39045       -999.13               
     7 r.11                  1002.77             0               
     8 r.12                  -998.61      -998.709               
     9 r.13                  1002.77             0               
    10 r.14                  -999.76      -999.848               
    11 r.15                  2.77468             0               
    12 r.16                  1.39045      -999.714               
    13 r.17                  1002.77             0               
    14 r.18                 -999.518      -999.758               
    15 r.19                  2.77468             0               
    16 r.20                  1.39045      -999.502               
    17 r.21                  1002.77             0               
    18 r.22                  -998.26      -999.629               
    19 r.23                  2.77468             0               
    20 r.24                  1.73958      -999.504               
    21 r.25                  1002.77             0               
    22 r.26                 -999.912      -999.912               
    23 r.27                  2.77468             0               
    24 r.28                   0.0883      -999.795               
    25 r.29                  2.77468             0               
    26 r.30                 -997.502      -998.892               
    27 r.31                  1002.77             0               
    28 r.32                 -997.225      -998.616               
    29 r.33                  1002.77             0               
    30 r.34                 -997.225      -998.965               
    31 r.35                  2.77468             0               
    32 r.36                  2.77468      -998.653               
    33 r.37                        1             1             = 
    34 r.38                        1             1             = 
    35 r.39                        1             1             = 
    36 r.40                        1             1             = 
    37 r.41                        1             1             = 
    38 r.42                        1             1             = 
    39 r.43                        1             1             = 
    40 r.44                        1             1             = 
    41 r.45                     1001             2               
    42 r.46                    -1001         -1001               
    43 r.47                  2000.02       -999.13               
    44 r.48                     1001             2               
    45 r.49                    -1001         -1001               
    46 r.50                     2000      -998.709               
    47 r.51                        2             2               
    48 r.52                       -2         -1001               
    49 r.53                  -1.1283      -999.848               
    50 r.54                     1000             2               
    51 r.55                    -1000         -1001               
    52 r.56                     2000      -999.714               
    53 r.57                        2             2               
    54 r.58                       -2         -1001               
    55 r.59                -0.886389      -999.758               
    56 r.60                     1000             2               
    57 r.61                    -1000         -1001               
    58 r.62                     2000      -999.502               
    59 r.63                        2             2               
    60 r.64                       -2         -1001               
    61 r.65                 -999.629      -999.629               
    62 r.66                     1000             2               
    63 r.67                    -1000         -1001               
    64 r.68                  2000.35      -999.504               
    65 r.69                  -998.72      -999.114               
    66 r.70                  1.30215      -998.634               
    67 r.71                  -998.72      -999.114               
    68 r.72                  1.30215      -998.634               
    69 r.73                  -998.87      -998.892               
    70 r.74                 -998.594      -998.616               
    71 r.75                 -998.892      -998.892               
    72 r.76                 -998.616      -998.616               
    73 r.77                 -998.594      -998.965               
    74 r.78                  1.40628      -998.653               
    75 r.79                 -998.616      -998.965               
    76 r.80                  1.38422      -998.653               
    77 r.81                     1001             2               
    78 r.82                    -1001         -1001               
    79 r.83                  1999.98      0.886389               
    80 r.84                     1001             2               
    81 r.85                    -1001         -1001               
    82 r.86                     2000       1.36592               
    83 r.87                     1001             2               
    84 r.88                    -1001         -1001               
    85 r.89                  1998.85      -999.848               
    86 r.90                     1001             2               
    87 r.91                    -1001         -1001               
    88 r.92                     2000      -999.714               
    89 r.93                     1001             2               
    90 r.94                    -1001         -1001               
    91 r.95                  1999.09      -999.758               
    92 r.96                     1001             2               
    93 r.97                    -1001         -1001               
    94 r.98                     2000      -999.502               
    95 r.99                     1001             2               
    96 r.100                   -1001         -1001               
    97 r.101                 2000.35      -999.629               
    98 r.102                    1001             2               
    99 r.103                   -1001         -1001               
   100 r.104                 2000.35      -999.504               
   101 r.105                 1.30215       -999.13               
   102 r.106                -998.698      -998.709               
   103 r.107                 1.30215       -999.13               
   104 r.108                -998.698      -998.709               
   105 r.109                -998.892      -998.892               
   106 r.110                -998.616      -998.616               
   107 r.111                -998.892      -998.892               
   108 r.112                -998.616      -998.616               
   109 r.113                    1001             2               
   110 r.114                   -1001         -1001               
   111 r.115                 2001.38      -998.965               
   112 r.116                    1001             2               
   113 r.117                   -1001         -1001               
   114 r.118                 2001.38      -998.653               
   115 r.119                       2             2               
   116 r.120                      -2         -1001               
   117 r.121                  1.1283      0.886389               
   118 r.122                    1000             2               
   119 r.123                   -1000         -1001               
   120 r.124                    2000       1.36592               
   121 r.125                    1001             2               
   122 r.126                   -1001         -1001               
   123 r.127                 2001.15      0.869956               
   124 r.128                    1001             2               
   125 r.129                   -1001         -1001               
   126 r.130                    2000       1.29101               
   127 r.131                       2             2               
   128 r.132                      -2         -1001               
   129 r.133                -999.758      -999.758               
   130 r.134                    1000             2               
   131 r.135                   -1000         -1001               
   132 r.136                    2000      -999.502               
   133 r.137                       2             2               
   134 r.138                      -2         -1001               
   135 r.139                -998.501      -999.629               
   136 r.140                    1000             2               
   137 r.141                   -1000         -1001               
   138 r.142                 2000.35      -999.504               
   139 r.143                -999.848      -999.848               
   140 r.144                 1.30215      -999.714               
   141 r.145                -999.848      -999.848               
   142 r.146                 1.30215      -999.714               
   143 r.147                -997.742      -998.892               
   144 r.148                -997.465      -998.616               
   145 r.149                -998.892      -998.892               
   146 r.150                -998.616      -998.616               
   147 r.151                -997.465      -998.965               
   148 r.152                 2.53458      -998.653               
   149 r.153                -998.616      -998.965               
   150 r.154                 1.38422      -998.653               
   151 r.155                       2             2               
   152 r.156                      -2         -1001               
   153 r.157                0.886389      0.886389               
   154 r.158                    1000             2               
   155 r.159                   -1000         -1001               
   156 r.160                    2000       1.36592               
   157 r.161                    1001             2               
   158 r.162                   -1001         -1001               
   159 r.163                 2000.91      0.869956               
   160 r.164                    1001             2               
   161 r.165                   -1001         -1001               
   162 r.166                    2000       1.29101               
   163 r.167                       2             2               
   164 r.168                      -2         -1001               
   165 r.169                 999.758        0.1518               
   166 r.170                    1000             2               
   167 r.171                   -1000         -1001               
   168 r.172                    2000      0.285645               
   169 r.173                       2             2               
   170 r.174                      -2         -1001               
   171 r.175                -998.742      -999.629               
   172 r.176                    1000             2               
   173 r.177                   -1000         -1001               
   174 r.178                 2000.35      -999.504               
   175 r.179                -999.606      -999.758               
   176 r.180                 1.30215      -999.502               
   177 r.181                -999.606      -999.758               
   178 r.182                 1.30215      -999.502               
   179 r.183                -997.984      -998.892               
   180 r.184                -997.707      -998.616               
   181 r.185                -998.892      -998.892               
   182 r.186                -998.616      -998.616               
   183 r.187                       2             2               
   184 r.188                      -2         -1001               
   185 r.189                -997.707      -998.965               
   186 r.190                    1000             2               
   187 r.191                   -1000         -1001               
   188 r.192                 2001.38      -998.653               
   189 r.193                       2             2               
   190 r.194                      -2         -1001               
   191 r.195                 999.629      0.886389               
   192 r.196                    1000             2               
   193 r.197                   -1000         -1001               
   194 r.198                 1999.65       1.36592               
   195 r.199                    1001             2               
   196 r.200                   -1001         -1001               
   197 r.201                 1999.65      0.869956               
   198 r.202                    1001             2               
   199 r.203                   -1001         -1001               
   200 r.204                 1999.65       1.29101               
   201 r.205                       2             2               
   202 r.206                      -2         -1001               
   203 r.207                 998.501        0.1518               
   204 r.208                    1000             2               
   205 r.209                   -1000         -1001               
   206 r.210                 1999.65      0.285645               
   207 r.211                       2             2               
   208 r.212                      -2         -1001               
   209 r.213                 998.742      0.241911               
   210 r.214                    1000             2               
   211 r.215                   -1000         -1001               
   212 r.216                 1999.65      0.497722               
   213 r.217                -998.349      -999.629               
   214 r.218                 1.65128      -999.504               
   215 r.219                -998.349      -999.629               
   216 r.220                 1.65128      -999.504               
   217 r.221                    1001             2               
   218 r.222                   -1001         -1001               
   219 r.223                 1000.76      -998.892               
   220 r.224                    1001             2               
   221 r.225                   -1001         -1001               
   222 r.226                 2001.04      -998.616               
   223 r.227                -998.965      -998.965               
   224 r.228                  1.0351      -998.653               
   225 r.229                -998.965      -998.965               
   226 r.230                  1.0351      -998.653               
   227 r.231                 -997.59      -998.892               
   228 r.232                -997.314      -998.616               
   229 r.233                 -997.59      -998.892               
   230 r.234                -997.314      -998.616               
   231 r.235                    1001             2               
   232 r.236                   -1001         -1001               
   233 r.237                 2999.24      0.371178               
   234 r.238                    1001             2               
   235 r.239                   -1001         -1001               
   236 r.240                 1998.96      0.495612               
   237 r.241                    1001             2               
   238 r.242                   -1001         -1001               
   239 r.243                 3000.28      -998.965               
   240 r.244                    1001             2               
   241 r.245                   -1001         -1001               
   242 r.246                    2000      -998.653               
   243 r.247                    1001             2               
   244 r.248                   -1001         -1001               
   245 r.249                 1998.62      0.869956               
   246 r.250                    1001             2               
   247 r.251                   -1001         -1001               
   248 r.252                 1998.62       1.29101               
   249 r.253                       2             2               
   250 r.254                      -2         -1001               
   251 r.255                 997.707      0.241911               
   252 r.256                    1000             2               
   253 r.257                   -1000         -1001               
   254 r.258                 1998.62      0.497722               
   255 r.259                    1001             2               
   256 r.260                   -1001         -1001               
   257 r.261                 999.723       1.10756               
   258 r.262                    1001             2               
   259 r.263                   -1001         -1001               
   260 r.264                    2000       1.38422               

   No. Column name       Activity     Lower bound   Upper bound
------ ------------    ------------- ------------- -------------
     1 tt                    2.77468             0               
     2 s_1_1        *              1             0             1 
     3 t_1_1                 1.40628             0               
     4 s_1_8        *              1             0             1 
     5 s_1_7        *              0             0             1 
     6 s_2_1        *              0             0             1 
     7 t_2_1                 1.38422             0               
     8 s_2_8        *              0             0             1 
     9 s_2_7        *              1             0             1 
    10 s_1_2        *              0             0             1 
    11 t_1_2                 1.38422             0               
    12 s_2_2        *              1             0             1 
    13 t_2_2                 1.38422             0               
    14 s_1_3        *              1             0             1 
    15 t_1_3                 2.53458             0               
    16 s_2_3        *              0             0             1 
    17 t_2_3                 1.38422             0               
    18 s_1_4        *              1             0             1 
    19 t_1_4                 2.29267             0               
    20 s_2_4        *              0             0             1 
    21 t_2_4                 1.38422             0               
    22 s_1_5        *              1             0             1 
    23 t_1_5                  1.0351             0               
    24 s_2_5        *              0             0             1 
    25 t_2_5                  1.0351             0               
    26 s_1_6        *              1             0             1 
    27 t_1_6                 2.68638             0               
    28 s_2_6        *              0             0             1 
    29 t_2_6                 2.68638             0               
    30 t_1_7                 1000.28             0               
    31 t_2_7                       0             0               
    32 t_1_8                       0             0               
    33 t_2_8                       0             0               
    34 r_1_1_2      *              1             0             1 
    35 u_1_1_2      *              0             0             1 
    36 r_2_1_2      *              1             0             1 
    37 u_2_1_2      *              0             0             1 
    38 r_1_1_3      *              0             0             1 
    39 u_1_1_3      *              0             0             1 
    40 r_2_1_3      *              1             0             1 
    41 u_2_1_3      *              0             0             1 
    42 r_1_1_4      *              0             0             1 
    43 u_1_1_4      *              0             0             1 
    44 r_2_1_4      *              1             0             1 
    45 u_2_1_4      *              0             0             1 
    46 r_1_1_5      *              0             0             1 
    47 u_1_1_5      *              1             0             1 
    48 r_2_1_5      *              1             0             1 
    49 u_2_1_5      *              0             0             1 
    50 r_1_2_3      *              1             0             1 
    51 u_1_2_3      *              0             0             1 
    52 r_2_2_3      *              1             0             1 
    53 u_2_2_3      *              0             0             1 
    54 r_1_2_4      *              1             0             1 
    55 u_1_2_4      *              0             0             1 
    56 r_2_2_4      *              1             0             1 
    57 u_2_2_4      *              0             0             1 
    58 r_1_2_5      *              1             0             1 
    59 u_1_2_5      *              0             0             1 
    60 r_2_2_5      *              1             0             1 
    61 u_2_2_5      *              0             0             1 
    62 r_1_2_8      *              1             0             1 
    63 u_1_2_8      *              0             0             1 
    64 r_2_2_8      *              1             0             1 
    65 u_2_2_8      *              0             0             1 
    66 r_1_3_4      *              0             0             1 
    67 u_1_3_4      *              1             0             1 
    68 r_2_3_4      *              1             0             1 
    69 u_2_3_4      *              0             0             1 
    70 r_1_3_5      *              0             0             1 
    71 u_1_3_5      *              1             0             1 
    72 r_2_3_5      *              1             0             1 
    73 u_2_3_5      *              0             0             1 
    74 r_1_4_5      *              0             0             1 
    75 u_1_4_5      *              1             0             1 
    76 r_2_4_5      *              1             0             1 
    77 u_2_4_5      *              0             0             1 
    78 r_1_4_8      *              0             0             1 
    79 u_1_4_8      *              1             0             1 
    80 r_2_4_8      *              1             0             1 
    81 u_2_4_8      *              0             0             1 
    82 r_1_5_7      *              1             0             1 
    83 u_1_5_7      *              0             0             1 
    84 r_2_5_7      *              1             0             1 
    85 u_2_5_7      *              0             0             1 
    86 r_1_7_8      *              1             0             1 
    87 u_1_7_8      *              0             0             1 
    88 r_2_7_8      *              1             0             1 
    89 u_2_7_8      *              0             0             1 

Integer feasibility conditions:

KKT.PE: max.abs.err = 2.27e-13 on row 85
        max.rel.err = 5.68e-17 on row 85
        High quality

KKT.PB: max.abs.err = 0.00e+00 on row 0
        max.rel.err = 0.00e+00 on row 0
        High quality

End of output
